(set-logic QF_LRA)
(declare-fun X0 () Real )
(declare-fun Y0 () Real )
(declare-fun X1 () Real )
(declare-fun Y1 () Real )
(declare-fun X2 () Real )
(declare-fun Y2 () Real )
(declare-fun X3 () Real )
(declare-fun Y3 () Real )
(declare-fun X4 () Real )
(declare-fun Y4 () Real )
(declare-fun X5 () Real )
(declare-fun Y5 () Real )
(declare-fun Z () Real )
(declare-fun k () Real )
(assert (let
(( $goal (>= Z k) ))
(let
((
$phi ( and 
( or ( <= ( + X0 42 ) X1 )  ( <= ( + X1 87 ) X0 )  ( <= ( + Y0 41 ) Y1 )  ( <= ( + Y1 60 ) Y0 )  )
( or ( <= ( + X0 42 ) X2 )  ( <= ( + X2 26 ) X0 )  ( <= ( + Y0 41 ) Y2 )  ( <= ( + Y2 8 ) Y0 )  )
( or ( <= ( + X0 42 ) X3 )  ( <= ( + X3 89 ) X0 )  ( <= ( + Y0 41 ) Y3 )  ( <= ( + Y3 29 ) Y0 )  )
( or ( <= ( + X0 42 ) X4 )  ( <= ( + X4 84 ) X0 )  ( <= ( + Y0 41 ) Y4 )  ( <= ( + Y4 87 ) Y0 )  )
( or ( <= ( + X0 42 ) X5 )  ( <= ( + X5 68 ) X0 )  ( <= ( + Y0 41 ) Y5 )  ( <= ( + Y5 23 ) Y0 )  )
( or ( <= ( + X1 87 ) X2 )  ( <= ( + X2 26 ) X1 )  ( <= ( + Y1 60 ) Y2 )  ( <= ( + Y2 8 ) Y1 )  )
( or ( <= ( + X1 87 ) X3 )  ( <= ( + X3 89 ) X1 )  ( <= ( + Y1 60 ) Y3 )  ( <= ( + Y3 29 ) Y1 )  )
( or ( <= ( + X1 87 ) X4 )  ( <= ( + X4 84 ) X1 )  ( <= ( + Y1 60 ) Y4 )  ( <= ( + Y4 87 ) Y1 )  )
( or ( <= ( + X1 87 ) X5 )  ( <= ( + X5 68 ) X1 )  ( <= ( + Y1 60 ) Y5 )  ( <= ( + Y5 23 ) Y1 )  )
( or ( <= ( + X2 26 ) X3 )  ( <= ( + X3 89 ) X2 )  ( <= ( + Y2 8 ) Y3 )  ( <= ( + Y3 29 ) Y2 )  )
( or ( <= ( + X2 26 ) X4 )  ( <= ( + X4 84 ) X2 )  ( <= ( + Y2 8 ) Y4 )  ( <= ( + Y4 87 ) Y2 )  )
( or ( <= ( + X2 26 ) X5 )  ( <= ( + X5 68 ) X2 )  ( <= ( + Y2 8 ) Y5 )  ( <= ( + Y5 23 ) Y2 )  )
( or ( <= ( + X3 89 ) X4 )  ( <= ( + X4 84 ) X3 )  ( <= ( + Y3 29 ) Y4 )  ( <= ( + Y4 87 ) Y3 )  )
( or ( <= ( + X3 89 ) X5 )  ( <= ( + X5 68 ) X3 )  ( <= ( + Y3 29 ) Y5 )  ( <= ( + Y5 23 ) Y3 )  )
( or ( <= ( + X4 84 ) X5 )  ( <= ( + X5 68 ) X4 )  ( <= ( + Y4 87 ) Y5 )  ( <= ( + Y5 23 ) Y4 )  )
( >= X0 0)
( <= ( + X0 42) Z)
( >= Y0 0)
( <= ( + Y0 41 ) 122)
( >= X1 0)
( <= ( + X1 87) Z)
( >= Y1 0)
( <= ( + Y1 60 ) 122)
( >= X2 0)
( <= ( + X2 26) Z)
( >= Y2 0)
( <= ( + Y2 8 ) 122)
( >= X3 0)
( <= ( + X3 89) Z)
( >= Y3 0)
( <= ( + Y3 29 ) 122)
( >= X4 0)
( <= ( + X4 84) Z)
( >= Y4 0)
( <= ( + Y4 87 ) 122)
( >= X5 0)
( <= ( + X5 68) Z)
( >= Y5 0)
( <= ( + Y5 23 ) 122)
) )
)(=> $phi $goal))))